Traveling Salesman Problem/TSP_generados/Aleatorio1620390855_5.tsp
NAME: Aleatorio1620390855_5.tsp
COMMENT: Randomly generated scenario
TYPE: TSP
DIMENSION: 5
EDGE_WEIGHT_TYPE: ATT
NODE_COORD_SECTION
1 37.73 31.95
2 26.81 20.78
3 28.45 37.63
4 19.85 40.08
5 4.03 45.67
