Traveling Salesman Problem/TSP_generados/Aleatorio1620390855_5.opt.tour
NAME: Aleatorio1620390855_5.opt.tour
COMMENT: Optimal solution for Aleatorio1620390855_5 (85.96281512119307)
TYPE: TOUR
DIMENSION: 5
TOUR_SECTION
1 2 5 4 3
-1
EOF
